1632803
4 1252317
29
921589 921588 921587 921586 921585 921584 921575 1478411 1478409 1478408 1478407 923685 921580 921578 921576 1126106 921573 921572 921571 921570 921568 921566 921562 921561 921560 921559 921558 921556 921574 
54101 924531
641803
